NAME Original_LP
ROWS
 N  OBJ
 L  Constraint_0
 L  Constraint_1
 L  Constraint_2
COLUMNS
    x_0       OBJ       -4.9694145565811176e+00
    x_0       Constraint_0  25
    x_0       Constraint_1  38
    x_0       Constraint_2  54
    x_1       OBJ       -2.8481866378592313e+00
    x_1       Constraint_0  75
    x_1       Constraint_1  25
    x_1       Constraint_2  68
    x_2       OBJ       3.2409748483631660e+00
    x_2       Constraint_0  77
    x_2       Constraint_1  81
    x_2       Constraint_2  29
    x_3       OBJ       -7.1086261607216255e+00
    x_3       Constraint_0  89
    x_3       Constraint_1  60
    x_3       Constraint_2  91
    x_4       OBJ       7.7415417663102559e-02
    x_4       Constraint_0  4
    x_4       Constraint_1  2
    x_4       Constraint_2  3
RHS
    RHS1      Constraint_0  40
    RHS1      Constraint_1  19
    RHS1      Constraint_2  63
BOUNDS
ENDATA
